NAME: 8-Prenylnaringenin
PRECURSORMZ: 339.1237977
PRECURSORTYPE: [M-H]-
FORMULA: C20H20O5
Ontology: 8-prenylated flavanones
INCHIKEY: LPEPZZAVFJPLNZ-SFHVURJKSA-N
SMILES: CC(C)=CCC1=C(O)C=C(O)C2=C1O[C@@H](CC2=O)C1=CC=C(O)C=C1
RETENTIONTIME: 
CCS: 184.1095102
IONMODE: Negative
INSTRUMENTTYPE: LC-ESI-QTOF
INSTRUMENT: 
COLLISIONENERGY: 45 eV (ion-source)
Comment: Registered in MetaboBASE; Standard confirmed; RETENTIONTIME=15.88
Num Peaks: 16
109.0679	42
117.0366	28
119.0517	999
120.0537	58
129.0735	21
131.0876	50
133.06619	246
134.0659	38
136.0164	28
147.07739	20
148.0182	25
151.078	69
175.0741	38
176.0148	75
219.0694	92
233.08479	22

NAME: 8-Prenylnaringenin
PRECURSORMZ: 339.1237977
PRECURSORTYPE: [M-H]-
FORMULA: C20H20O5
Ontology: 8-prenylated flavanones
INCHIKEY: LPEPZZAVFJPLNZ-SFHVURJKSA-N
SMILES: CC(C)=CCC1=C(O)C=C(O)C2=C1O[C@@H](CC2=O)C1=CC=C(O)C=C1
RETENTIONTIME: 
CCS: 184.1095102
IONMODE: Negative
INSTRUMENTTYPE: LC-ESI-QTOF
INSTRUMENT: 
COLLISIONENERGY: 45 eV (ion-source)
Comment: Registered in MetaboBASE; Standard confirmed; RETENTIONTIME=15.88
Num Peaks: 8
119.0516	94
219.0694	284
220.07249	36
233.08591	30
245.08501	45
339.12811	999
340.13141	144
341.1337	25

NAME: 8-Prenylnaringenin
PRECURSORMZ: 339.1237977
PRECURSORTYPE: [M-H]-
FORMULA: C20H20O5
Ontology: 8-prenylated flavanones
INCHIKEY: LPEPZZAVFJPLNZ-SFHVURJKSA-N
SMILES: CC(C)=CCC1=C(O)C=C(O)C2=C1O[C@@H](CC2=O)C1=CC=C(O)C=C1
RETENTIONTIME: 
CCS: 184.1095102
IONMODE: Negative
INSTRUMENTTYPE: LC-ESI-QTOF
INSTRUMENT: 
COLLISIONENERGY: 45 eV (ion-source)
Comment: Registered in MetaboBASE; Standard confirmed; RETENTIONTIME=15.88
Num Peaks: 2
339.1283	999
340.13171	118